# Objective value = 5
input_bin(0) 0
input_bin(2) 0
input_bin(3) 0
input_bin(5) 0
input_bin(6) 0
input_bin(8) 0
input_bin(10) 0
input_bin(12) 0
input_bin(21) 0
input_bin(23) 0
input_bin(24) 0
input_bin(25) 0
input_bin(26) 0
input_bin(28) 0
input_bin(30) 0
input_bin(31) 0
input_bin(34) 0
input_bin(35) 0
input_bin(36) 0
input_bin(37) 0
input_bin(38) 0
input_bin(39) 0
input_bin(40) 0
input_bin(41) 0
input_bin(42) 0
input_bin(43) 0
input_bin(44) 0
input_bin(45) 0
input_bin(46) 0
input_bin(47) 0
input_bin(48) 0
input_bin(49) 0
input_bin(50) 0
input_bin(51) 0
input_bin(53) 0
input_bin(58) 0
input_bin(59) 0
input_bin(60) 0
input_bin(61) 0
input_bin(62) 0
input_bin(63) 0
input_bin(64) 0
input_bin(65) 0
input_bin(66) 0
input_bin(67) 0
input_bin(68) 0
input_bin(69) 0
input_bin(70) 0
input_bin(71) 0
input_bin(72) 0
input_bin(73) 0
input_bin(74) 0
input_bin(75) 0
input_bin(76) 0
input_bin(77) 0
input_bin(78) 0
input_bin(79) 0
input_bin(80) 0
input_bin(81) 0
input_bin(82) 0
input_bin(84) 0
input_bin(85) 0
input_bin(86) 0
input_bin(87) 0
input_bin(88) 0
input_bin(89) 0
input_bin(90) 0
input_bin(91) 0
input_bin(92) 0
input_bin(93) 0
input_bin(94) 0
input_bin(95) 0
input_bin(96) 0
input_bin(97) 0
input_bin(98) 0
input_bin(99) 0
input_bin(100) 0
input_bin(101) 0
input_bin(102) 0
input_bin(103) 0
input_bin(104) 0
input_bin(105) 0
input_bin(106) 0
input_bin(107) 0
input_bin(108) 0
input_bin(109) 0
input_bin(110) 0
input_bin(113) 0
input_bin(114) 0
input_bin(115) 0
input_bin(116) 0
input_bin(117) 0
input_bin(118) 0
input_bin(119) 0
input_bin(120) 0
input_bin(121) 0
input_bin(122) 0
input_bin(123) 0
input_bin(124) 0
input_bin(125) 0
input_bin(127) 0
input_bin(129) 0
input_bin(131) 0
input_bin(132) 0
input_bin(133) 0
input_bin(134) 0
input_bin(135) 0
input_bin(136) 0
input_bin(137) 0
input_bin(138) 0
input_bin(139) 0
input_bin(141) 0
input_bin(142) 0
input_bin(143) 0
input_bin(144) 0
input_bin(145) 0
input_bin(146) 0
input_bin(147) 0
input_bin(148) 0
input_bin(150) 0
input_bin(151) 0
input_bin(152) 0
input_bin(153) 0
input_bin(154) 0
input_bin(155) 0
input_bin(156) 0
input_bin(157) 0
input_bin(158) 0
input_bin(160) 0
input_bin(162) 0
input_bin(163) 0
input_bin(164) 0
input_bin(165) 0
input_bin(166) 0
input_bin(167) 0
input_bin(168) 0
input_bin(170) 0
input_bin(171) 0
input_bin(172) 0
input_bin(173) 0
input_bin(174) 0
input_bin(175) 0
input_bin(176) 0
input_bin(177) 0
input_bin(178) 0
input_bin(180) 1
input_bin(181) 1
input_bin(182) 0
input_bin(183) 0
input_bin(184) 0
input_bin(185) 0
input_bin(186) 0
input_bin(187) 0
input_bin(188) 0
input_bin(189) 0
input_bin(190) 0
input_bin(191) 0
input_bin(192) 0
input_bin(193) 0
input_bin(194) 0
input_bin(195) 0
input_bin(196) 0
input_bin(197) 0
input_bin(198) 0
input_bin(199) 0
input_bin(200) 0
input_bin(201) 0
input_bin(202) 0
input_bin(203) 0
input_bin(205) 0
input_bin(206) 1
input_bin(207) 1
input_bin(208) 1
input_bin(209) 1
input_bin(210) 0
input_bin(211) 0
input_bin(212) 0
input_bin(213) 0
input_bin(214) 0
input_bin(215) 0
input_bin(216) 0
input_bin(217) 0
input_bin(218) 0
input_bin(219) 0
input_bin(220) 0
input_bin(221) 0
input_bin(222) 0
input_bin(223) 0
input_bin(224) 0
input_bin(225) 0
input_bin(226) 0
input_bin(227) 0
input_bin(228) 0
input_bin(232) 0
input_bin(235) 1
input_bin(236) 1
input_bin(237) 1
input_bin(238) 1
input_bin(239) 0
input_bin(240) 0
input_bin(241) 0
input_bin(242) 0
input_bin(243) 0
input_bin(244) 0
input_bin(245) 0
input_bin(246) 0
input_bin(247) 0
input_bin(248) 0
input_bin(249) 0
input_bin(250) 0
input_bin(251) 1
input_bin(252) 1
input_bin(253) 0
input_bin(254) 0
input_bin(255) 0
input_bin(256) 0
input_bin(257) 0
input_bin(259) 0
input_bin(260) 0
input_bin(261) 1
input_bin(262) 1
input_bin(263) 1
input_bin(264) 1
input_bin(265) 1
input_bin(266) 1
input_bin(267) 1
input_bin(268) 0
input_bin(269) 0
input_bin(270) 0
input_bin(271) 0
input_bin(272) 0
input_bin(273) 0
input_bin(274) 0
input_bin(275) 0
input_bin(276) 0
input_bin(277) 0
input_bin(278) 0
input_bin(279) 0
input_bin(280) 1
input_bin(281) 0
input_bin(282) 0
input_bin(283) 0
input_bin(284) 0
input_bin(285) 0
input_bin(286) 0
input_bin(287) 0
input_bin(288) 0
input_bin(289) 1
input_bin(290) 1
input_bin(291) 1
input_bin(292) 1
input_bin(293) 1
input_bin(294) 1
input_bin(295) 1
input_bin(296) 1
input_bin(297) 0
input_bin(298) 0
input_bin(299) 0
input_bin(300) 0
input_bin(301) 0
input_bin(302) 0
input_bin(303) 0
input_bin(304) 0
input_bin(305) 0
input_bin(306) 0
input_bin(307) 0
input_bin(308) 0
input_bin(309) 1
input_bin(310) 0
input_bin(311) 0
input_bin(312) 0
input_bin(313) 0
input_bin(314) 0
input_bin(315) 0
input_bin(316) 0
input_bin(317) 1
input_bin(318) 1
input_bin(319) 0
input_bin(320) 0
input_bin(321) 1
input_bin(322) 1
input_bin(323) 1
input_bin(324) 1
input_bin(325) 1
input_bin(326) 0
input_bin(327) 0
input_bin(328) 0
input_bin(329) 0
input_bin(330) 0
input_bin(331) 0
input_bin(332) 0
input_bin(333) 0
input_bin(334) 0
input_bin(335) 0
input_bin(337) 0
input_bin(338) 0
input_bin(339) 0
input_bin(340) 0
input_bin(341) 0
input_bin(342) 0
input_bin(343) 0
input_bin(344) 1
input_bin(345) 1
input_bin(346) 0
input_bin(347) 0
input_bin(348) 0
input_bin(349) 0
input_bin(350) 1
input_bin(351) 1
input_bin(352) 1
input_bin(353) 1
input_bin(354) 0
input_bin(355) 0
input_bin(356) 0
input_bin(357) 0
input_bin(358) 0
input_bin(359) 0
input_bin(360) 0
input_bin(361) 0
input_bin(362) 0
input_bin(363) 0
input_bin(364) 0
input_bin(365) 0
input_bin(366) 0
input_bin(367) 0
input_bin(368) 0
input_bin(369) 0
input_bin(370) 0
input_bin(371) 0
input_bin(372) 1
input_bin(373) 1
input_bin(374) 1
input_bin(375) 0
input_bin(376) 0
input_bin(377) 0
input_bin(378) 1
input_bin(379) 1
input_bin(380) 1
input_bin(381) 1
input_bin(383) 0
input_bin(384) 0
input_bin(385) 0
input_bin(386) 0
input_bin(387) 0
input_bin(388) 0
input_bin(389) 0
input_bin(390) 0
input_bin(391) 0
input_bin(392) 0
input_bin(393) 0
input_bin(394) 0
input_bin(395) 0
input_bin(396) 0
input_bin(397) 0
input_bin(398) 0
input_bin(399) 0
input_bin(400) 0
input_bin(401) 1
input_bin(402) 1
input_bin(403) 0
input_bin(404) 1
input_bin(405) 1
input_bin(406) 1
input_bin(407) 1
input_bin(408) 1
input_bin(409) 1
input_bin(410) 0
input_bin(411) 0
input_bin(412) 0
input_bin(413) 0
input_bin(414) 0
input_bin(415) 0
input_bin(416) 0
input_bin(417) 0
input_bin(418) 0
input_bin(419) 0
input_bin(421) 0
input_bin(422) 0
input_bin(423) 0
input_bin(424) 0
input_bin(425) 0
input_bin(426) 0
input_bin(427) 0
input_bin(428) 0
input_bin(429) 1
input_bin(430) 1
input_bin(431) 1
input_bin(432) 1
input_bin(433) 1
input_bin(434) 1
input_bin(435) 0
input_bin(436) 1
input_bin(437) 1
input_bin(440) 0
input_bin(441) 0
input_bin(442) 0
input_bin(443) 0
input_bin(444) 0
input_bin(445) 0
input_bin(446) 0
input_bin(447) 0
input_bin(448) 1
input_bin(450) 0
input_bin(451) 0
input_bin(452) 0
input_bin(453) 0
input_bin(454) 0
input_bin(455) 0
input_bin(456) 0
input_bin(457) 0
input_bin(458) 1
input_bin(459) 1
input_bin(460) 1
input_bin(461) 1
input_bin(462) 0
input_bin(463) 0
input_bin(464) 1
input_bin(465) 1
input_bin(466) 1
input_bin(467) 1
input_bin(468) 0
input_bin(470) 0
input_bin(471) 0
input_bin(472) 0
input_bin(473) 0
input_bin(474) 0
input_bin(475) 0
input_bin(477) 0
input_bin(478) 0
input_bin(479) 0
input_bin(480) 0
input_bin(481) 0
input_bin(482) 0
input_bin(483) 0
input_bin(484) 0
input_bin(485) 0
input_bin(486) 0
input_bin(487) 1
input_bin(488) 1
input_bin(489) 0
input_bin(490) 0
input_bin(491) 0
input_bin(492) 0
input_bin(493) 1
input_bin(494) 1
input_bin(495) 1
input_bin(498) 0
input_bin(499) 0
input_bin(500) 0
input_bin(501) 0
input_bin(502) 0
input_bin(503) 0
input_bin(504) 0
input_bin(506) 0
input_bin(507) 0
input_bin(508) 0
input_bin(509) 0
input_bin(510) 0
input_bin(511) 0
input_bin(512) 0
input_bin(513) 0
input_bin(514) 0
input_bin(515) 0
input_bin(516) 0
input_bin(517) 0
input_bin(518) 0
input_bin(519) 0
input_bin(520) 0
input_bin(521) 1
input_bin(522) 1
input_bin(523) 1
input_bin(525) 0
input_bin(526) 0
input_bin(527) 0
input_bin(528) 0
input_bin(529) 0
input_bin(530) 0
input_bin(531) 0
input_bin(532) 0
input_bin(533) 0
input_bin(534) 0
input_bin(535) 0
input_bin(536) 0
input_bin(537) 0
input_bin(538) 0
input_bin(539) 0
input_bin(540) 0
input_bin(541) 0
input_bin(542) 0
input_bin(543) 0
input_bin(544) 0
input_bin(545) 0
input_bin(546) 0
input_bin(547) 0
input_bin(548) 0
input_bin(549) 0
input_bin(554) 0
input_bin(555) 0
input_bin(556) 0
input_bin(557) 0
input_bin(558) 0
input_bin(559) 0
input_bin(560) 0
input_bin(561) 0
input_bin(562) 0
input_bin(563) 0
input_bin(564) 0
input_bin(565) 0
input_bin(566) 0
input_bin(567) 0
input_bin(568) 0
input_bin(569) 0
input_bin(570) 0
input_bin(571) 0
input_bin(572) 0
input_bin(573) 0
input_bin(574) 0
input_bin(575) 0
input_bin(576) 0
input_bin(578) 0
input_bin(579) 1
input_bin(580) 1
input_bin(582) 0
input_bin(583) 0
input_bin(584) 0
input_bin(585) 0
input_bin(586) 0
input_bin(588) 0
input_bin(589) 0
input_bin(590) 0
input_bin(591) 0
input_bin(592) 0
input_bin(594) 0
input_bin(595) 0
input_bin(597) 0
input_bin(598) 0
input_bin(599) 0
input_bin(600) 0
input_bin(601) 0
input_bin(602) 0
input_bin(603) 0
input_bin(604) 0
input_bin(606) 0
input_bin(608) 1
input_bin(610) 0
input_bin(611) 0
input_bin(612) 0
input_bin(613) 0
input_bin(614) 0
input_bin(618) 0
input_bin(619) 0
input_bin(620) 0
input_bin(621) 0
input_bin(622) 0
input_bin(624) 0
input_bin(628) 0
input_bin(629) 0
input_bin(631) 0
input_bin(633) 0
input_bin(635) 0
input_bin(637) 1
input_bin(638) 1
input_bin(639) 0
input_bin(640) 0
input_bin(641) 0
input_bin(642) 0
input_bin(643) 0
input_bin(644) 0
input_bin(646) 0
input_bin(647) 0
input_bin(648) 0
input_bin(649) 0
input_bin(651) 0
input_bin(654) 0
input_bin(655) 0
input_bin(657) 0
input_bin(658) 0
input_bin(659) 0
input_bin(660) 0
input_bin(661) 0
input_bin(662) 0
input_bin(663) 0
input_bin(664) 1
input_bin(665) 1
input_bin(666) 1
input_bin(667) 0
input_bin(668) 0
input_bin(669) 0
input_bin(670) 0
input_bin(673) 0
input_bin(674) 0
input_bin(675) 0
input_bin(676) 0
input_bin(677) 0
input_bin(678) 0
input_bin(679) 0
input_bin(680) 0
input_bin(681) 0
input_bin(682) 0
input_bin(684) 0
input_bin(686) 0
input_bin(688) 0
input_bin(691) 0
input_bin(692) 0
input_bin(693) 1
input_bin(694) 1
input_bin(695) 1
input_bin(696) 0
input_bin(697) 0
input_bin(698) 0
input_bin(699) 0
input_bin(700) 0
input_bin(702) 0
input_bin(703) 0
input_bin(704) 0
input_bin(705) 0
input_bin(706) 0
input_bin(707) 0
input_bin(708) 0
input_bin(709) 0
input_bin(710) 0
input_bin(711) 0
input_bin(712) 0
input_bin(713) 0
input_bin(714) 0
input_bin(715) 0
input_bin(716) 0
input_bin(717) 0
input_bin(718) 0
input_bin(719) 0
input_bin(720) 0
input_bin(721) 1
input_bin(722) 1
input_bin(723) 1
input_bin(724) 0
input_bin(726) 0
input_bin(729) 0
input_bin(732) 0
input_bin(733) 0
input_bin(734) 0
input_bin(735) 0
input_bin(736) 0
input_bin(737) 0
input_bin(738) 0
input_bin(739) 0
input_bin(740) 0
input_bin(741) 0
input_bin(742) 0
input_bin(743) 0
input_bin(744) 0
input_bin(745) 0
input_bin(746) 0
input_bin(747) 0
input_bin(748) 0
input_bin(749) 0
input_bin(750) 0
input_bin(751) 0
input_bin(752) 0
input_bin(753) 0
input_bin(754) 0
input_bin(756) 0
input_bin(759) 0
input_bin(760) 0
input_bin(761) 0
input_bin(762) 0
input_bin(763) 0
input_bin(764) 0
input_bin(765) 0
input_bin(766) 0
input_bin(767) 0
input_bin(768) 0
input_bin(769) 0
input_bin(770) 0
input_bin(771) 0
input_bin(772) 0
input_bin(773) 0
input_bin(774) 0
input_bin(775) 0
input_bin(776) 0
input_bin(777) 0
input_bin(778) 0
input_bin(779) 0
input_bin(780) 0
one 1
block0(0) 1
input_bin(1) 1
input_bin(4) 1
input_bin(7) 1
input_bin(9) 1
input_bin(11) 1
input_bin(13) 1
input_bin(14) 1
input_bin(15) 1
input_bin(16) 1
input_bin(17) 1
input_bin(18) 1
input_bin(19) 1
input_bin(20) 1
input_bin(22) 1
input_bin(27) 1
input_bin(29) 1
input_bin(32) 1
input_bin(33) 1
input_bin(52) 1
input_bin(54) 1
input_bin(55) 1
input_bin(56) 1
input_bin(57) 1
input_bin(83) 1
input_bin(111) 1
input_bin(112) 1
input_bin(126) 1
input_bin(128) 1
input_bin(130) 1
input_bin(140) 1
input_bin(149) 1
input_bin(159) 1
input_bin(161) 1
input_bin(169) 1
input_bin(179) 1
input_bin(204) 1
input_bin(229) 1
input_bin(230) 1
input_bin(231) 1
input_bin(233) 1
input_bin(234) 1
input_bin(258) 1
input_bin(336) 1
input_bin(382) 1
input_bin(420) 1
input_bin(438) 1
input_bin(439) 1
input_bin(449) 1
input_bin(469) 1
input_bin(476) 1
input_bin(496) 1
input_bin(497) 1
input_bin(505) 1
input_bin(524) 1
input_bin(550) 1
input_bin(551) 1
input_bin(552) 1
input_bin(553) 1
input_bin(577) 1
input_bin(581) 1
input_bin(587) 1
input_bin(593) 1
input_bin(596) 1
input_bin(605) 1
input_bin(607) 1
input_bin(609) 1
input_bin(615) 1
input_bin(616) 1
input_bin(617) 1
input_bin(623) 1
input_bin(625) 1
input_bin(626) 1
input_bin(627) 1
input_bin(630) 1
input_bin(632) 1
input_bin(634) 1
input_bin(636) 1
input_bin(645) 1
input_bin(650) 1
input_bin(652) 1
input_bin(653) 1
input_bin(656) 1
input_bin(671) 1
input_bin(672) 1
input_bin(683) 1
input_bin(685) 1
input_bin(687) 1
input_bin(689) 1
input_bin(690) 1
input_bin(701) 1
input_bin(725) 1
input_bin(727) 1
input_bin(728) 1
input_bin(730) 1
input_bin(731) 1
input_bin(755) 1
input_bin(757) 1
input_bin(758) 1
input_bin(781) 1
input_bin(782) 1
input_bin(783) 1
block0(1) 1
block0(2) 0
block0(3) 1
block0(4) 0
block0(5) 1
block0(6) 1
block0(7) 1
block0(8) 0
block0(9) 0
block0(10) 0
block0(11) 1
block0(12) 1
block0(13) 1
block0(14) 0
block0(15) 1
block0(16) 1
block0(17) 1
block0(18) 1
block0(19) 1
block0(20) 0
block0(21) 1
block0(22) 1
block0(23) 0
block0(24) 1
block0(25) 1
block0(26) 0
block0(27) 0
block0(28) 1
block0(29) 1
block0(30) 1
block0(31) 0
block0(32) 1
block0(33) 1
block0(34) 0
block0(35) 0
block0(36) 0
block0(37) 1
block0(38) 0
block0(39) 0
block0(40) 0
block0(41) 1
block0(42) 0
block0(43) 0
block0(44) 1
block0(45) 1
block0(46) 1
block0(47) 1
block0(48) 0
block0(49) 0
block0(50) 1
block0(51) 0
block0(52) 1
block0(53) 1
block0(54) 1
block0(55) 0
block0(56) 1
block0(57) 0
block0(58) 1
block0(59) 1
block0(60) 1
block0(61) 0
block0(62) 1
block0(63) 0
block0(64) 0
block0(65) 0
block0(66) 0
block0(67) 1
block0(68) 1
block0(69) 1
block0(70) 0
block0(71) 1
block0(72) 0
block0(73) 1
block0(74) 0
block0(75) 1
block0(76) 0
block0(77) 0
block0(78) 1
block0(79) 1
block0(80) 1
block0(81) 0
block0(82) 1
block0(83) 1
block0(84) 1
block0(85) 1
block0(86) 1
block0(87) 0
block0(88) 1
block0(89) 1
block0(90) 1
block0(91) 1
block0(92) 0
block0(93) 1
block0(94) 1
block0(95) 1
block0(96) 1
block0(97) 1
block0(98) 1
block0(99) 1
block0(100) 0
block0(101) 0
block0(102) 0
block0(103) 0
block0(104) 0
block0(105) 1
block0(106) 0
block0(107) 1
block0(108) 1
block0(109) 1
block0(110) 1
block0(111) 1
block0(112) 0
block0(113) 1
block0(114) 0
block0(115) 0
block0(116) 0
block0(117) 0
block0(118) 0
block0(119) 1
block0(120) 0
block0(121) 0
block0(122) 0
block0(123) 0
block0(124) 0
block0(125) 0
block0(126) 1
block0(127) 0
block0(128) 1
block0(129) 1
block0(130) 1
block0(131) 1
block0(132) 1
block0(133) 0
block0(134) 1
block0(135) 0
block0(136) 1
block0(137) 1
block0(138) 1
block0(139) 1
block0(140) 1
block0(141) 1
block0(142) 1
block0(143) 1
block0(144) 0
block0(145) 0
block0(146) 1
block0(147) 0
block0(148) 0
block0(149) 0
block0(150) 1
block0(151) 0
block0(152) 0
block0(153) 0
block0(154) 1
block0(155) 0
block0(156) 0
block0(157) 0
block0(158) 1
block0(159) 1
block0(160) 1
block0(161) 1
block0(162) 0
block0(163) 1
block0(164) 0
block0(165) 0
block0(166) 1
block0(167) 0
block0(168) 1
block0(169) 1
block0(170) 1
block0(171) 0
block0(172) 1
block0(173) 0
block0(174) 1
block0(175) 0
block0(176) 1
block0(177) 1
block0(178) 0
block0(179) 1
block0(180) 1
block0(181) 1
block0(182) 1
block0(183) 0
block0(184) 0
block0(185) 1
block0(186) 0
block0(187) 0
block0(188) 0
block0(189) 1
block0(190) 0
block0(191) 0
block0(192) 0
block0(193) 0
block0(194) 1
block0(195) 1
block0(196) 0
block0(197) 1
block0(198) 1
block0(199) 0
block1(0) 0
block1(1) 0
block1(2) 0
block1(3) 1
block1(4) 0
block1(5) 1
block1(6) 1
block1(7) 1
block1(8) 1
block1(9) 0
block1(10) 0
block1(11) 1
block1(12) 1
block1(13) 0
block1(14) 0
block1(15) 0
block1(16) 0
block1(17) 0
block1(18) 1
block1(19) 0
block1(20) 1
block1(21) 0
block1(22) 1
block1(23) 0
block1(24) 1
block1(25) 1
block1(26) 1
block1(27) 1
block1(28) 0
block1(29) 0
block1(30) 0
block1(31) 0
block1(32) 1
block1(33) 1
block1(34) 0
block1(35) 1
block1(36) 1
block1(37) 0
block1(38) 1
block1(39) 1
block1(40) 1
block1(41) 1
block1(42) 0
block1(43) 0
block1(44) 0
block1(45) 1
block1(46) 0
block1(47) 1
block1(48) 0
block1(49) 1
block1(50) 1
block1(51) 0
block1(52) 0
block1(53) 0
block1(54) 1
block1(55) 1
block1(56) 0
block1(57) 1
block1(58) 1
block1(59) 0
block1(60) 0
block1(61) 0
block1(62) 1
block1(63) 1
block1(64) 1
block1(65) 1
block1(66) 1
block1(67) 1
block1(68) 1
block1(69) 0
block1(70) 1
block1(71) 1
block1(72) 0
block1(73) 0
block1(74) 1
block1(75) 1
block1(76) 1
block1(77) 1
block1(78) 0
block1(79) 0
block1(80) 0
block1(81) 0
block1(82) 0
block1(83) 1
block1(84) 0
block1(85) 0
block1(86) 0
block1(87) 0
block1(88) 1
block1(89) 1
block1(90) 1
block1(91) 0
block1(92) 1
block1(93) 0
block1(94) 1
block1(95) 0
block1(96) 1
block1(97) 1
block1(98) 1
block1(99) 1
block2(0) 1
block2(1) 1
block2(2) 1
block2(3) 1
block2(4) 1
block2(5) 1
block2(6) 0
block2(7) 0
block2(8) 1
block2(9) 0
block2(10) 0
block2(11) 1
block2(12) 1
block2(13) 1
block2(14) 0
block2(15) 1
block2(16) 1
block2(17) 1
block2(18) 0
block2(19) 1
block2(20) 1
block2(21) 0
block2(22) 1
block2(23) 1
block2(24) 0
block2(25) 0
block2(26) 0
block2(27) 0
block2(28) 0
block2(29) 1
block2(30) 0
block2(31) 1
block2(32) 0
block2(33) 1
block2(34) 1
block2(35) 1
block2(36) 1
block2(37) 1
block2(38) 0
block2(39) 1
block2(40) 1
block2(41) 1
block2(42) 0
block2(43) 1
block2(44) 1
block2(45) 1
block2(46) 0
block2(47) 1
block2(48) 1
block2(49) 1
block2(50) 0
block2(51) 1
block2(52) 1
block2(53) 1
block2(54) 1
block2(55) 1
block2(56) 1
block2(57) 0
block2(58) 1
block2(59) 0
block2(60) 1
block2(61) 1
block2(62) 1
block2(63) 0
block2(64) 1
block2(65) 1
block2(66) 0
block2(67) 1
block2(68) 0
block2(69) 0
block2(70) 0
block2(71) 1
block2(72) 1
block2(73) 0
block2(74) 0
block2(75) 1
block2(76) 1
block2(77) 0
block2(78) 1
block2(79) 1
block2(80) 0
block2(81) 1
block2(82) 1
block2(83) 1
block2(84) 0
block2(85) 1
block2(86) 1
block2(87) 0
block2(88) 1
block2(89) 1
block2(90) 0
block2(91) 0
block2(92) 1
block2(93) 1
block2(94) 1
block2(95) 1
block2(96) 0
block2(97) 0
block2(98) 1
block2(99) 0
block3(0) 1
block3(1) 0
block3(2) 0
block3(3) 1
block3(4) 0
block3(5) 1
block3(6) 1
block3(7) 0
block3(8) 0
block3(9) 0
block3(10) 1
block3(11) 1
block3(12) 0
block3(13) 1
block3(14) 0
block3(15) 0
block3(16) 0
block3(17) 1
block3(18) 0
block3(19) 0
block3(20) 1
block3(21) 1
block3(22) 1
block3(23) 0
block3(24) 1
block3(25) 0
block3(26) 1
block3(27) 1
block3(28) 1
block3(29) 0
block3(30) 0
block3(31) 1
block3(32) 1
block3(33) 0
block3(34) 0
block3(35) 0
block3(36) 1
block3(37) 0
block3(38) 0
block3(39) 0
block3(40) 0
block3(41) 1
block3(42) 0
block3(43) 0
block3(44) 1
block3(45) 1
block3(46) 0
block3(47) 1
block3(48) 0
block3(49) 0
block3(50) 1
block3(51) 1
block3(52) 0
block3(53) 1
block3(54) 1
block3(55) 0
block3(56) 1
block3(57) 0
block3(58) 1
block3(59) 0
block3(60) 1
block3(61) 0
block3(62) 1
block3(63) 1
block3(64) 0
block3(65) 0
block3(66) 1
block3(67) 1
block3(68) 1
block3(69) 0
block3(70) 1
block3(71) 0
block3(72) 0
block3(73) 0
block3(74) 1
block3(75) 1
block3(76) 1
block3(77) 0
block3(78) 1
block3(79) 1
block3(80) 1
block3(81) 0
block3(82) 0
block3(83) 1
block3(84) 0
block3(85) 0
block3(86) 1
block3(87) 1
block3(88) 1
block3(89) 1
block3(90) 1
block3(91) 1
block3(92) 0
block3(93) 1
block3(94) 1
block3(95) 0
block3(96) 1
block3(97) 0
block3(98) 1
block3(99) 1
output(0) 0
output(1) 0
output(2) 0
output(3) 0
output(4) 1
output(5) 0
output(6) 0
output(7) 0
output(8) 0
output(9) 0
